200 -384831
300 -381703
400 -379168
500 -377420
600 -375923
700 -374804
800 -373436
900 -372590
1000 -371245
1100 -369679
1200 -368817
1300 -368185
1400 -367419
1500 -366765
1600 -365879
1700 -365222
1800 -364801
1900 -364417
2000 -363840
2100 -363054
2200 -362648
2300 -361898
2400 -361668
2500 -360553
2600 -359845
2700 -359408
2800 -358776
2900 -358102
3000 -357398
3100 -356886
3200 -356303
3300 -355797
3400 -355254
3500 -354856
3600 -354310
3700 -353997
3800 -353786
3900 -353519
4000 -353241
4100 -352986
4200 -352799
4300 -352561
4400 -352088
